certificates/rado_a13_c226_N39.cnf
c Rad2 upper bound instance: x1 + 13*x2 - x3 = 226, interval [1,39]
p cnf 39 232
1 9 18 0
-1 -9 -18 0
1 19 22 0
-1 -19 -22 0
1 20 35 0
-1 -20 -35 0
2 10 18 0
-2 -10 -18 0
2 19 23 0
-2 -19 -23 0
2 20 36 0
-2 -20 -36 0
3 11 18 0
-3 -11 -18 0
3 19 24 0
-3 -19 -24 0
3 20 37 0
-3 -20 -37 0
4 12 18 0
-4 -12 -18 0
4 19 25 0
-4 -19 -25 0
4 20 38 0
-4 -20 -38 0
5 13 18 0
-5 -13 -18 0
5 19 26 0
-5 -19 -26 0
5 20 39 0
-5 -20 -39 0
1 6 17 0
-1 -6 -17 0
6 14 18 0
-6 -14 -18 0
6 19 27 0
-6 -19 -27 0
2 7 17 0
-2 -7 -17 0
7 15 18 0
-7 -15 -18 0
7 19 28 0
-7 -19 -28 0
3 8 17 0
-3 -8 -17 0
8 16 18 0
-8 -16 -18 0
8 19 29 0
-8 -19 -29 0
4 9 17 0
-4 -9 -17 0
9 17 18 0
-9 -17 -18 0
9 19 30 0
-9 -19 -30 0
5 10 17 0
-5 -10 -17 0
10 18 0
-10 -18 0
10 19 31 0
-10 -19 -31 0
6 11 17 0
-6 -11 -17 0
11 18 19 0
-11 -18 -19 0
11 19 32 0
-11 -19 -32 0
7 12 17 0
-7 -12 -17 0
12 18 20 0
-12 -18 -20 0
12 19 33 0
-12 -19 -33 0
8 13 17 0
-8 -13 -17 0
13 18 21 0
-13 -18 -21 0
13 19 34 0
-13 -19 -34 0
9 14 17 0
-9 -14 -17 0
14 18 22 0
-14 -18 -22 0
14 19 35 0
-14 -19 -35 0
10 15 17 0
-10 -15 -17 0
15 18 23 0
-15 -18 -23 0
15 19 36 0
-15 -19 -36 0
11 16 17 0
-11 -16 -17 0
16 18 24 0
-16 -18 -24 0
16 19 37 0
-16 -19 -37 0
12 17 0
-12 -17 0
17 18 25 0
-17 -18 -25 0
17 19 38 0
-17 -19 -38 0
13 17 18 0
-13 -17 -18 0
18 26 0
-18 -26 0
18 19 39 0
-18 -19 -39 0
1 16 19 0
-1 -16 -19 0
14 17 19 0
-14 -17 -19 0
18 19 27 0
-18 -19 -27 0
2 16 20 0
-2 -16 -20 0
15 17 20 0
-15 -17 -20 0
18 20 28 0
-18 -20 -28 0
3 16 21 0
-3 -16 -21 0
16 17 21 0
-16 -17 -21 0
18 21 29 0
-18 -21 -29 0
4 16 22 0
-4 -16 -22 0
17 22 0
-17 -22 0
18 22 30 0
-18 -22 -30 0
5 16 23 0
-5 -16 -23 0
17 18 23 0
-17 -18 -23 0
18 23 31 0
-18 -23 -31 0
6 16 24 0
-6 -16 -24 0
17 19 24 0
-17 -19 -24 0
18 24 32 0
-18 -24 -32 0
7 16 25 0
-7 -16 -25 0
17 20 25 0
-17 -20 -25 0
18 25 33 0
-18 -25 -33 0
8 16 26 0
-8 -16 -26 0
17 21 26 0
-17 -21 -26 0
18 26 34 0
-18 -26 -34 0
9 16 27 0
-9 -16 -27 0
17 22 27 0
-17 -22 -27 0
18 27 35 0
-18 -27 -35 0
10 16 28 0
-10 -16 -28 0
17 23 28 0
-17 -23 -28 0
18 28 36 0
-18 -28 -36 0
11 16 29 0
-11 -16 -29 0
17 24 29 0
-17 -24 -29 0
18 29 37 0
-18 -29 -37 0
12 16 30 0
-12 -16 -30 0
17 25 30 0
-17 -25 -30 0
18 30 38 0
-18 -30 -38 0
13 16 31 0
-13 -16 -31 0
17 26 31 0
-17 -26 -31 0
18 31 39 0
-18 -31 -39 0
1 15 32 0
-1 -15 -32 0
14 16 32 0
-14 -16 -32 0
17 27 32 0
-17 -27 -32 0
2 15 33 0
-2 -15 -33 0
15 16 33 0
-15 -16 -33 0
17 28 33 0
-17 -28 -33 0
3 15 34 0
-3 -15 -34 0
16 34 0
-16 -34 0
17 29 34 0
-17 -29 -34 0
4 15 35 0
-4 -15 -35 0
16 17 35 0
-16 -17 -35 0
17 30 35 0
-17 -30 -35 0
5 15 36 0
-5 -15 -36 0
16 18 36 0
-16 -18 -36 0
17 31 36 0
-17 -31 -36 0
6 15 37 0
-6 -15 -37 0
17 32 37 0
-17 -32 -37 0
7 15 38 0
-7 -15 -38 0
16 20 38 0
-16 -20 -38 0
17 33 38 0
-17 -33 -38 0
8 15 39 0
-8 -15 -39 0
16 21 39 0
-16 -21 -39 0
17 34 39 0
-17 -34 -39 0
