certificates/rado_a13_c226_N39.drat
19 -34 -35 -39 0
-34 -35 -36 -39 0
-35 -36 -37 -39 0
-16 -36 -38 0
-36 -37 -38 -39 0
-34 36 -39 0
-37 -38 -39 0
d -36 -37 -38 -39 0
-17 -38 0
-16 -38 -39 0
-38 -39 0
d -37 -38 -39 0
17 38 0
-19 -39 0
-17 -39 0
d -34 -17 -39 0
-39 0
19 -17 0
-17 0
12 0
22 0
34 0
38 0
-16 0
21 0
35 0
11 0
-19 0
18 0
24 0
14 0
37 0
1 0
-10 0
-20 0
0
